(set-info :smt-lib-version 2.6)
(set-logic QF_NIA)
(set-info :source |
Generated by: Cristina Borralleras, Daniel Larraz, Albert Oliveras, Enric Rodriguez-Carbonell, Albert Rubio
Generated on: 2017-04-27
Generator: VeryMax
Application: Termination proving
Target solver: barcelogic
|)
(set-info :license "https://creativecommons.org/licenses/by/4.0/")
(set-info :category "industrial")
(set-info :status unknown)
(declare-fun Nl5main_i1 () Int)
(declare-fun Nl5main_j1 () Int)
(declare-fun Nl5main_k1 () Int)
(declare-fun Nl5main_l1 () Int)
(declare-fun Nl5main_m1 () Int)
(declare-fun Nl5main_a1 () Int)
(declare-fun Nl5main_b1 () Int)
(declare-fun Nl11main_i1 () Int)
(declare-fun Nl11main_j1 () Int)
(declare-fun Nl11main_k1 () Int)
(declare-fun Nl11main_l1 () Int)
(declare-fun Nl11main_m1 () Int)
(declare-fun Nl11main_a1 () Int)
(declare-fun Nl11main_b1 () Int)
(declare-fun Nl14main_i1 () Int)
(declare-fun Nl14main_j1 () Int)
(declare-fun Nl14main_k1 () Int)
(declare-fun Nl14main_l1 () Int)
(declare-fun Nl14main_m1 () Int)
(declare-fun Nl14main_a1 () Int)
(declare-fun Nl14main_b1 () Int)
(declare-fun lam0n0 () Int)
(declare-fun lam0n1 () Int)
(declare-fun lam0n2 () Int)
(declare-fun lam0n3 () Int)
(declare-fun lam0n4 () Int)
(declare-fun Nl5CT1 () Int)
(declare-fun lam1n0 () Int)
(declare-fun lam1n1 () Int)
(declare-fun lam1n2 () Int)
(declare-fun lam1n3 () Int)
(declare-fun lam1n4 () Int)
(declare-fun Nl11CT1 () Int)
(declare-fun lam2n0 () Int)
(declare-fun lam2n1 () Int)
(declare-fun lam2n2 () Int)
(declare-fun lam2n3 () Int)
(declare-fun lam3n0 () Int)
(declare-fun lam3n1 () Int)
(declare-fun lam3n2 () Int)
(declare-fun lam3n3 () Int)
(declare-fun Nl14CT1 () Int)
(declare-fun lam4n0 () Int)
(declare-fun lam4n1 () Int)
(declare-fun lam4n2 () Int)
(declare-fun lam5n0 () Int)
(declare-fun lam5n1 () Int)
(declare-fun lam5n2 () Int)
(declare-fun lam6n0 () Int)
(assert ( and ( <= ( - 1000 ) Nl5main_i1 ) ( <= Nl5main_i1 1000 ) ( <= ( - 1000 ) Nl5main_j1 ) ( <= Nl5main_j1 1000 ) ( <= ( - 1000 ) Nl5main_k1 ) ( <= Nl5main_k1 1000 ) ( <= ( - 1000 ) Nl5main_l1 ) ( <= Nl5main_l1 1000 ) ( <= ( - 1000 ) Nl5main_m1 ) ( <= Nl5main_m1 1000 ) ( <= ( - 1000 ) Nl5main_a1 ) ( <= Nl5main_a1 1000 ) ( <= ( - 1000 ) Nl5main_b1 ) ( <= Nl5main_b1 1000 ) ( <= ( - 1000 ) Nl11main_i1 ) ( <= Nl11main_i1 1000 ) ( <= ( - 1000 ) Nl11main_j1 ) ( <= Nl11main_j1 1000 ) ( <= ( - 1000 ) Nl11main_k1 ) ( <= Nl11main_k1 1000 ) ( <= ( - 1000 ) Nl11main_l1 ) ( <= Nl11main_l1 1000 ) ( <= ( - 1000 ) Nl11main_m1 ) ( <= Nl11main_m1 1000 ) ( <= ( - 1000 ) Nl11main_a1 ) ( <= Nl11main_a1 1000 ) ( <= ( - 1000 ) Nl11main_b1 ) ( <= Nl11main_b1 1000 ) ( <= ( - 1000 ) Nl14main_i1 ) ( <= Nl14main_i1 1000 ) ( <= ( - 1000 ) Nl14main_j1 ) ( <= Nl14main_j1 1000 ) ( <= ( - 1000 ) Nl14main_k1 ) ( <= Nl14main_k1 1000 ) ( <= ( - 1000 ) Nl14main_l1 ) ( <= Nl14main_l1 1000 ) ( <= ( - 1000 ) Nl14main_m1 ) ( <= Nl14main_m1 1000 ) ( <= ( - 1000 ) Nl14main_a1 ) ( <= Nl14main_a1 1000 ) ( <= ( - 1000 ) Nl14main_b1 ) ( <= Nl14main_b1 1000 ) ))
(assert ( or ( and ( >= lam0n0 0 ) ( >= lam0n1 0 ) ( >= lam0n2 0 ) ( >= lam0n3 0 ) ( >= lam0n4 0 ) ( > ( + ( * 1 lam0n0 ) ( * 1 lam0n1 ) ( * ( - 3 ) lam0n2 ) ( * ( - 2 ) lam0n3 ) ( * Nl5CT1 lam0n4 ) ( - 1 ) ) 0 ) ( = ( + ( * 1 lam0n0 ) ( * ( - 1 ) lam0n2 ) ( * ( - 1 ) lam0n3 ) ( * Nl5main_i1 lam0n4 ) ) 0 ) ( = ( + ( * ( - 1 ) lam0n0 ) ( * 1 lam0n1 ) ( * ( - 1 ) lam0n2 ) ( * Nl5main_j1 lam0n4 ) ) 0 ) ( = ( * Nl5main_k1 lam0n4 ) 0 ) ( = ( * Nl5main_l1 lam0n4 ) 0 ) ( = ( * Nl5main_m1 lam0n4 ) 0 ) ( = ( + ( * ( - 1 ) lam0n0 ) ( * ( - 1 ) lam0n1 ) ( * 1 lam0n3 ) ( * Nl5main_a1 lam0n4 ) ) 0 ) ( = ( * Nl5main_b1 lam0n4 ) 0 ) ) ( and ( >= lam1n0 0 ) ( >= lam1n1 0 ) ( >= lam1n2 0 ) ( >= lam1n3 0 ) ( >= lam1n4 0 ) ( > ( + ( * 1 lam1n0 ) ( * 1 lam1n1 ) ( * ( - 3 ) lam1n2 ) ( * ( - 2 ) lam1n3 ) ( * Nl5CT1 lam1n4 ) ( - 1 ( + ( + ( + Nl11CT1 ( * Nl11main_k1 3 ) ) ( * Nl11main_l1 0 ) ) ( * Nl11main_b1 7 ) ) ) ) 0 ) ( = ( + ( * 1 lam1n0 ) ( * ( - 1 ) lam1n2 ) ( * ( - 1 ) lam1n3 ) ( * Nl5main_i1 lam1n4 ) ( - ( + ( + ( + 0 Nl11main_i1 ) ( * Nl11main_k1 1 ) ) ( * Nl11main_b1 2 ) ) ) ) 0 ) ( = ( + ( * ( - 1 ) lam1n0 ) ( * 1 lam1n1 ) ( * ( - 1 ) lam1n2 ) ( * Nl5main_j1 lam1n4 ) ( - ( + ( + ( + 0 Nl11main_j1 ) ( * Nl11main_k1 1 ) ) ( * Nl11main_b1 2 ) ) ) ) 0 ) ( = ( * Nl5main_k1 lam1n4 ) 0 ) ( = ( * Nl5main_l1 lam1n4 ) 0 ) ( = ( + ( * Nl5main_m1 lam1n4 ) ( - ( + 0 Nl11main_m1 ) ) ) 0 ) ( = ( + ( * ( - 1 ) lam1n0 ) ( * ( - 1 ) lam1n1 ) ( * 1 lam1n3 ) ( * Nl5main_a1 lam1n4 ) ( - ( + 0 Nl11main_a1 ) ) ) 0 ) ( = ( * Nl5main_b1 lam1n4 ) 0 ) ) ))
(assert ( or ( and ( >= lam2n0 0 ) ( >= lam2n1 0 ) ( >= lam2n2 0 ) ( >= lam2n3 0 ) ( > ( + ( * 1 lam2n0 ) ( * ( - 1 ) lam2n1 ) ( * ( - 4 ) lam2n2 ) ( * Nl11CT1 lam2n3 ) ( - 1 ) ) 0 ) ( = ( + ( * ( - 1 ) lam2n2 ) ( * Nl11main_i1 lam2n3 ) ) 0 ) ( = ( + ( * ( - 1 ) lam2n2 ) ( * Nl11main_j1 lam2n3 ) ) 0 ) ( = ( + ( * ( - 1 ) lam2n2 ) ( * Nl11main_k1 lam2n3 ) ) 0 ) ( = ( + ( * 1 lam2n0 ) ( * 1 lam2n1 ) ( * ( - 2 ) lam2n2 ) ( * Nl11main_l1 lam2n3 ) ) 0 ) ( = ( * Nl11main_m1 lam2n3 ) 0 ) ( = ( + ( * ( - 1 ) lam2n1 ) ( * Nl11main_a1 lam2n3 ) ) 0 ) ( = ( + ( * ( - 1 ) lam2n0 ) ( * ( - 1 ) lam2n1 ) ( * 1 lam2n2 ) ( * Nl11main_b1 lam2n3 ) ) 0 ) ) ( and ( >= lam3n0 0 ) ( >= lam3n1 0 ) ( >= lam3n2 0 ) ( >= lam3n3 0 ) ( > ( + ( * 1 lam3n0 ) ( * ( - 1 ) lam3n1 ) ( * ( - 4 ) lam3n2 ) ( * Nl11CT1 lam3n3 ) ( - 1 ( + Nl14CT1 ( * Nl14main_m1 1000 ) ) ) ) 0 ) ( = ( + ( * ( - 1 ) lam3n2 ) ( * Nl11main_i1 lam3n3 ) ( - ( + ( + 0 Nl14main_i1 ) ( * Nl14main_m1 1 ) ) ) ) 0 ) ( = ( + ( * ( - 1 ) lam3n2 ) ( * Nl11main_j1 lam3n3 ) ( - ( + ( + 0 Nl14main_j1 ) ( * Nl14main_m1 1 ) ) ) ) 0 ) ( = ( + ( * ( - 1 ) lam3n2 ) ( * Nl11main_k1 lam3n3 ) ( - ( + ( + 0 Nl14main_k1 ) ( * Nl14main_m1 1 ) ) ) ) 0 ) ( = ( + ( * 1 lam3n0 ) ( * 1 lam3n1 ) ( * ( - 2 ) lam3n2 ) ( * Nl11main_l1 lam3n3 ) ( - ( + ( + 0 Nl14main_l1 ) ( * Nl14main_m1 1 ) ) ) ) 0 ) ( = ( * Nl11main_m1 lam3n3 ) 0 ) ( = ( + ( * ( - 1 ) lam3n1 ) ( * Nl11main_a1 lam3n3 ) ( - ( + 0 Nl14main_a1 ) ) ) 0 ) ( = ( + ( * ( - 1 ) lam3n0 ) ( * ( - 1 ) lam3n1 ) ( * 1 lam3n2 ) ( * Nl11main_b1 lam3n3 ) ( - ( + 0 Nl14main_b1 ) ) ) 0 ) ) ))
(assert ( or ( and ( >= lam4n0 0 ) ( >= lam4n1 0 ) ( >= lam4n2 0 ) ( > ( + ( * 1 lam4n0 ) ( * ( - 1 ) lam4n1 ) ( * Nl14CT1 lam4n2 ) ( - 1 ) ) 0 ) ( = ( * Nl14main_i1 lam4n2 ) 0 ) ( = ( * Nl14main_j1 lam4n2 ) 0 ) ( = ( * Nl14main_k1 lam4n2 ) 0 ) ( = ( + ( * 1 lam4n1 ) ( * Nl14main_l1 lam4n2 ) ) 0 ) ( = ( + ( * ( - 1 ) lam4n0 ) ( * Nl14main_m1 lam4n2 ) ) 0 ) ( = ( + ( * ( - 1 ) lam4n1 ) ( * Nl14main_a1 lam4n2 ) ) 0 ) ( = ( + ( * ( - 1 ) lam4n1 ) ( * Nl14main_b1 lam4n2 ) ) 0 ) ) ( and ( >= lam5n0 0 ) ( >= lam5n1 0 ) ( >= lam5n2 0 ) ( > ( + ( * 1 lam5n0 ) ( * ( - 1 ) lam5n1 ) ( * Nl14CT1 lam5n2 ) ( - 1 Nl14CT1 ) ) 0 ) ( = ( + ( * Nl14main_i1 lam5n2 ) ( - ( + 0 Nl14main_i1 ) ) ) 0 ) ( = ( + ( * Nl14main_j1 lam5n2 ) ( - ( + 0 Nl14main_j1 ) ) ) 0 ) ( = ( + ( * Nl14main_k1 lam5n2 ) ( - ( + 0 Nl14main_k1 ) ) ) 0 ) ( = ( + ( * 1 lam5n1 ) ( * Nl14main_l1 lam5n2 ) ( - ( + 0 Nl14main_l1 ) ) ) 0 ) ( = ( + ( * ( - 1 ) lam5n0 ) ( * Nl14main_m1 lam5n2 ) ( - ( + 0 Nl14main_m1 ) ) ) 0 ) ( = ( + ( * ( - 1 ) lam5n1 ) ( * Nl14main_a1 lam5n2 ) ( - ( + 0 Nl14main_a1 ) ) ) 0 ) ( = ( + ( * ( - 1 ) lam5n1 ) ( * Nl14main_b1 lam5n2 ) ( - ( + 0 Nl14main_b1 ) ) ) 0 ) ) ))
(assert ( and ( > ( - 1 ( + ( + Nl5CT1 ( * Nl5main_j1 0 ) ) ( * Nl5main_a1 2 ) ) ) 0 ) ( = ( + ( * 1 lam6n0 ) ( - ( + 0 Nl5main_i1 ) ) ) 0 ) ( = ( - ( + 0 Nl5main_k1 ) ) 0 ) ( = ( - ( + 0 Nl5main_l1 ) ) 0 ) ( = ( - ( + 0 Nl5main_m1 ) ) 0 ) ( = ( - ( + 0 Nl5main_b1 ) ) 0 ) ))
(assert ( or ( and ( >= lam0n0 0 ) ( >= lam0n1 0 ) ( >= lam0n2 0 ) ( >= lam0n3 0 ) ( >= lam0n4 0 ) ( > ( + ( * 1 lam0n0 ) ( * 1 lam0n1 ) ( * ( - 3 ) lam0n2 ) ( * ( - 2 ) lam0n3 ) ( * Nl5CT1 lam0n4 ) ( - 1 ) ) 0 ) ( = ( + ( * 1 lam0n0 ) ( * ( - 1 ) lam0n2 ) ( * ( - 1 ) lam0n3 ) ( * Nl5main_i1 lam0n4 ) ) 0 ) ( = ( + ( * ( - 1 ) lam0n0 ) ( * 1 lam0n1 ) ( * ( - 1 ) lam0n2 ) ( * Nl5main_j1 lam0n4 ) ) 0 ) ( = ( * Nl5main_k1 lam0n4 ) 0 ) ( = ( * Nl5main_l1 lam0n4 ) 0 ) ( = ( * Nl5main_m1 lam0n4 ) 0 ) ( = ( + ( * ( - 1 ) lam0n0 ) ( * ( - 1 ) lam0n1 ) ( * 1 lam0n3 ) ( * Nl5main_a1 lam0n4 ) ) 0 ) ( = ( * Nl5main_b1 lam0n4 ) 0 ) ) ( and ( >= lam2n0 0 ) ( >= lam2n1 0 ) ( >= lam2n2 0 ) ( >= lam2n3 0 ) ( > ( + ( * 1 lam2n0 ) ( * ( - 1 ) lam2n1 ) ( * ( - 4 ) lam2n2 ) ( * Nl11CT1 lam2n3 ) ( - 1 ) ) 0 ) ( = ( + ( * ( - 1 ) lam2n2 ) ( * Nl11main_i1 lam2n3 ) ) 0 ) ( = ( + ( * ( - 1 ) lam2n2 ) ( * Nl11main_j1 lam2n3 ) ) 0 ) ( = ( + ( * ( - 1 ) lam2n2 ) ( * Nl11main_k1 lam2n3 ) ) 0 ) ( = ( + ( * 1 lam2n0 ) ( * 1 lam2n1 ) ( * ( - 2 ) lam2n2 ) ( * Nl11main_l1 lam2n3 ) ) 0 ) ( = ( * Nl11main_m1 lam2n3 ) 0 ) ( = ( + ( * ( - 1 ) lam2n1 ) ( * Nl11main_a1 lam2n3 ) ) 0 ) ( = ( + ( * ( - 1 ) lam2n0 ) ( * ( - 1 ) lam2n1 ) ( * 1 lam2n2 ) ( * Nl11main_b1 lam2n3 ) ) 0 ) ) ( and ( >= lam4n0 0 ) ( >= lam4n1 0 ) ( >= lam4n2 0 ) ( > ( + ( * 1 lam4n0 ) ( * ( - 1 ) lam4n1 ) ( * Nl14CT1 lam4n2 ) ( - 1 ) ) 0 ) ( = ( * Nl14main_i1 lam4n2 ) 0 ) ( = ( * Nl14main_j1 lam4n2 ) 0 ) ( = ( * Nl14main_k1 lam4n2 ) 0 ) ( = ( + ( * 1 lam4n1 ) ( * Nl14main_l1 lam4n2 ) ) 0 ) ( = ( + ( * ( - 1 ) lam4n0 ) ( * Nl14main_m1 lam4n2 ) ) 0 ) ( = ( + ( * ( - 1 ) lam4n1 ) ( * Nl14main_a1 lam4n2 ) ) 0 ) ( = ( + ( * ( - 1 ) lam4n1 ) ( * Nl14main_b1 lam4n2 ) ) 0 ) ) ))
(check-sat)
(exit)
